branch-and-cut/resultados/I080/i080-005.sol
1790
12
9 74
70 74
3 68
9 12
1 59
59 12
4 70
59 2
5 7
68 9
7 6
59 7
